(set-logic QF_SLIA)
(declare-fun var0 () String)
(assert (not (str.in_re var0 (re.++ ((_ re.loop 6 496) (re.++ (re.union (str.to_re "X`") (re.union (str.to_re "={t") (re.union (str.to_re "a") (str.to_re "M")))) (re.++ (re.union (str.to_re ",q+") (re.union (str.to_re "$l") (re.union (str.to_re "J,") (str.to_re "^")))) (re.++ (re.union (str.to_re "U5z") (re.union (str.to_re "9[u") (re.union (str.to_re "c1") (str.to_re "{'")))) (re.union (str.to_re "Q") (re.union (str.to_re "9") (re.union (str.to_re "3M3") (str.to_re "F")))))))) (re.++ ((_ re.loop 15 692) (re.++ (re.union (str.to_re "lZi") (re.union (str.to_re "N") (re.union (str.to_re "s5") (str.to_re "lFt")))) (re.++ (re.union (str.to_re "^KK") (re.union (str.to_re "s:") (re.union (str.to_re ";") (str.to_re "M")))) (re.++ (re.union (str.to_re "L") (re.union (str.to_re "p") (re.union (str.to_re "$\u0022{") (str.to_re ".Iq")))) (re.union (str.to_re "e^e") (re.union (str.to_re "\\") (re.union (str.to_re "^") (str.to_re ":")))))))) (re.++ ((_ re.loop 13 999) (re.++ (re.union (str.to_re "#z") (re.union (str.to_re "gN") (re.union (str.to_re ":") (str.to_re "*")))) (re.++ (re.union (str.to_re "i") (re.union (str.to_re "C#T") (re.union (str.to_re "BO") (str.to_re "3@w")))) (re.++ (re.union (str.to_re "KJ5") (re.union (str.to_re "WvW") (re.union (str.to_re "M") (str.to_re "G")))) (re.union (str.to_re "D:") (re.union (str.to_re "L") (re.union (str.to_re "-X") (str.to_re "sO")))))))) ((_ re.loop 14 734) (re.++ (re.union (str.to_re "+t") (re.union (str.to_re "M*") (re.union (str.to_re "<-o") (str.to_re "irt")))) (re.++ (re.union (str.to_re "3I") (re.union (str.to_re "['3") (re.union (str.to_re "mj;") (str.to_re "z4")))) (re.++ (re.union (str.to_re "?tX") (re.union (str.to_re "B88") (re.union (str.to_re "WJ") (str.to_re "dcw")))) (re.union (str.to_re "M'") (re.union (str.to_re "L=") (re.union (str.to_re "C") (str.to_re "&4"))))))))))))))
(assert (not (str.in_re var0 (re.++ ((_ re.loop 17 122) (re.++ (re.union (str.to_re ";|h") (re.union (str.to_re "NY0") (re.union (str.to_re "V") (str.to_re "<to")))) (re.++ (re.union (str.to_re ".nB") (re.union (str.to_re "\u0022u") (re.union (str.to_re "AS<") (str.to_re "mj")))) (re.++ (re.union (str.to_re "2Yv") (re.union (str.to_re "S") (re.union (str.to_re "@x") (str.to_re "O=")))) (re.union (str.to_re "o1f") (re.union (str.to_re "TR)") (re.union (str.to_re "\u0022:") (str.to_re "=[")))))))) (re.++ ((_ re.loop 2 882) (re.++ (re.union (str.to_re "c=Y") (re.union (str.to_re "c") (re.union (str.to_re "5") (str.to_re "x=W")))) (re.++ (re.union (str.to_re ":") (re.union (str.to_re ")4") (re.union (str.to_re "<ur") (str.to_re "R`")))) (re.++ (re.union (str.to_re "&U") (re.union (str.to_re "9") (re.union (str.to_re "r") (str.to_re "W76")))) (re.union (str.to_re "g") (re.union (str.to_re "u2") (re.union (str.to_re "S@!") (str.to_re "4G")))))))) (re.++ ((_ re.loop 1 51) (re.++ (re.union (str.to_re "3") (re.union (str.to_re "BD") (re.union (str.to_re "U&_") (str.to_re "Oa.")))) (re.++ (re.union (str.to_re "<=@") (re.union (str.to_re "v") (re.union (str.to_re "{4") (str.to_re "l3")))) (re.++ (re.union (str.to_re "].") (re.union (str.to_re "7}") (re.union (str.to_re "kZ") (str.to_re "C")))) (re.union (str.to_re "k\\w") (re.union (str.to_re ".") (re.union (str.to_re "Ov|") (str.to_re "1")))))))) ((_ re.loop 15 470) (re.++ (re.union (str.to_re "r") (re.union (str.to_re "ma[") (re.union (str.to_re "}~j") (str.to_re "w")))) (re.++ (re.union (str.to_re "$F") (re.union (str.to_re "c") (re.union (str.to_re "E") (str.to_re "kt")))) (re.++ (re.union (str.to_re ";C") (re.union (str.to_re ".f") (re.union (str.to_re "94") (str.to_re "F0(")))) (re.union (str.to_re "en") (re.union (str.to_re "{_h") (re.union (str.to_re "K") (str.to_re "b"))))))))))))))
(assert (not (str.in_re var0 (re.++ (re.* re.allchar) (re.++ (re.union (str.to_re "<") (re.union (str.to_re ">") (re.union (str.to_re "'") (re.union (str.to_re "\u0022") (str.to_re "&"))))) (re.* re.allchar))))))
(assert (<= 50 (str.len var0)))
(check-sat)
(get-model)
